22
21
25
24
46
45
44
48
47
69
68
70
67
50
49
52
53
54
42
43
28
29
30
31
19
20
5
6
7
8
9
10
11
12
13
14
74
15
16
17
18
37
36
34
40
41
60
59
58
57
55
56
51
66
65
71
72
73
64
63
62
61
39
38
35
32
33
27
26
4
3
2
75
76
1
23
22
